Test: battleship-08-15-sat.cnf
Options: vanilla
WARNING: for repeatability, setting FPU to use double precision
============================[ Problem Statistics ]=============================
|                                                                             |
|  Number of symmetries:           14                                         |
|  Number of invertingSyms:         0                                         |
|  Number of variables:           120                                         |
|  Number of clauses:             484                                         |
|  Parse time:                   0.00 s                                       |
|                                                                             |
============================[ Search Statistics ]==============================
| Conflicts |          ORIGINAL         |          LEARNT          | Progress |
|           |    Vars  Clauses Literals |    Limit  Clauses Lit/Cl |          |
===============================================================================
|       100 |     120      484     1800 |      177      154     55 |  0.007 % |
===============================================================================
restarts              : 3
conflicts             : 204            (inf /sec)
symconflicts          : 21             (inf /sec)
decisions             : 429            (0.00 % random) (inf /sec)
propagations          : 3329           (inf /sec)
sympropagations       : 68             (inf /sec)
conflict literals     : 10348          (0.41 % deleted)
literals     : 10348          (0.41 % deleted)

HEURISTIC USAGES
random                : 0           
activity w/ lookahead : 0           
activity no lookahead : 0           
original sp           : 428         
sym count             : 0           

Memory used           : 5.00 MB
CPU time              : 0 s

SATISFIABLE
